17 16

2 6 8 4 9 15 1 12 10 6
5 9 11 11 9 5 10 15 12 15 7 4
13 4 9 12 5 9 1 5 15 7
1 15 8 7 11 10 14 3 9 12 16 5
3 13 14 3 10 9 15 3 6 15
16 6 11 11 5 5 2 6
15 8 10 5 11 3 4 5 7 15 9 2
4 5 7 10 11 5 2 5 9 5
2 13 10 15 12 10 13 3 11 14
15 4 12 8 3 3 7 3 14 13 4 10
1 14 5 11 6 8 10 12 14 15
8 9 11 3 5 11 4 10
15 11 11 13 6 7 5 7 7 4 3 11
16 14 10 11 7 14 5 6 11 3 4 10
5 3 16 13 3 14 4 8 8 6 10 13
15 6 2 2 12 10 9 3
14 12 4 12 5 9 11 13
